/* Objective function */
min: 2.1526044311667594x1 + 5.210593357147148x2 + 3.8507975433810016x3 + 11.954836701120414x4 + 2.152604431166759x5 + 10.724342774102684x7 + 7.78989848903067x8 + 17.727290321236474x9 + 5.210593357147148x10 + 10.724342774102682x11 + 15.033449587072667x13 + 1.5841751854394737x14 + 3.850797543381001x15 + 7.78989848903067x16 + 15.033449587072667x17 + 26.354821745171325x19 + 11.954836701120415x20 + 17.727290321236474x21 + 1.5841751854394737x22 + 26.354821745171325x23;

/* Variable bounds */
-1.0x0 <= 0.0;
-1.0x1 <= 0.0;
-1.0x2 <= 0.0;
-1.0x3 <= 0.0;
-1.0x4 <= 0.0;
-1.0x5 <= 0.0;
-1.0x6 <= 0.0;
-1.0x7 <= 0.0;
-1.0x8 <= 0.0;
-1.0x9 <= 0.0;
-1.0x10 <= 0.0;
-1.0x11 <= 0.0;
-1.0x12 <= 0.0;
-1.0x13 <= 0.0;
-1.0x14 <= 0.0;
-1.0x15 <= 0.0;
-1.0x16 <= 0.0;
-1.0x17 <= 0.0;
-1.0x18 <= 0.0;
-1.0x19 <= 0.0;
-1.0x20 <= 0.0;
-1.0x21 <= 0.0;
-1.0x22 <= 0.0;
-1.0x23 <= 0.0;
-1.0x24 <= 0.0;
1.0x0 + 1.0x1 + 1.0x2 + 1.0x3 + 1.0x4 <= 0.39905856437586923;
1.0x5 + 1.0x6 + 1.0x7 + 1.0x8 + 1.0x9 <= 3.8017483596374895;
1.0x10 + 1.0x11 + 1.0x12 + 1.0x13 + 1.0x14 <= 2.7917386017931314;
1.0x15 + 1.0x16 + 1.0x17 + 1.0x18 + 1.0x19 <= 5.471422283279298;
1.0x20 + 1.0x21 + 1.0x22 + 1.0x23 + 1.0x24 <= 8.289583471329857;
1.0x0 + 1.0x5 + 1.0x10 + 1.0x15 + 1.0x20 <= 0.39905856437586923;
1.0x1 + 1.0x6 + 1.0x11 + 1.0x16 + 1.0x21 <= 3.8017483596374895;
1.0x2 + 1.0x7 + 1.0x12 + 1.0x17 + 1.0x22 <= 2.7917386017931314;
1.0x3 + 1.0x8 + 1.0x13 + 1.0x18 + 1.0x23 <= 5.471422283279298;
1.0x4 + 1.0x9 + 1.0x14 + 1.0x19 + 1.0x24 <= 8.289583471329857;
1.0x0 + 1.0x1 + 1.0x2 + 1.0x3 + 1.0x4 + 1.0x5 + 1.0x6 + 1.0x7 + 1.0x8 + 1.0x9 + 1.0x10 + 1.0x11 + 1.0x12 + 1.0x13 + 1.0x14 + 1.0x15 + 1.0x16 + 1.0x17 + 1.0x18 + 1.0x19 + 1.0x20 + 1.0x21 + 1.0x22 + 1.0x23 + 1.0x24 <= 20.753551280415643;
-1.0x0 + -1.0x1 + -1.0x2 + -1.0x3 + -1.0x4 + -1.0x5 + -1.0x6 + -1.0x7 + -1.0x8 + -1.0x9 + -1.0x10 + -1.0x11 + -1.0x12 + -1.0x13 + -1.0x14 + -1.0x15 + -1.0x16 + -1.0x17 + -1.0x18 + -1.0x19 + -1.0x20 + -1.0x21 + -1.0x22 + -1.0x23 + -1.0x24 <= -20.753551280415643;
